c preprocessed version of 1fk5_graph, 85 vertices, 823 edges
p td 85 823
83 84
82 84
82 83
81 84
81 83
81 82
80 83
80 82
80 81
79 83
79 82
79 81
79 80
78 83
78 82
78 80
78 79
77 80
77 79
77 78
76 83
76 80
76 79
76 78
76 77
75 83
75 79
75 78
75 77
75 76
74 83
74 79
74 78
74 76
74 75
73 84
73 83
73 82
73 81
73 80
73 79
73 78
73 76
73 75
73 74
72 84
72 83
72 82
72 79
72 75
72 74
72 73
71 83
71 79
71 75
71 74
71 73
71 72
70 74
70 72
70 71
69 83
69 75
69 73
69 72
69 71
69 70
68 70
68 69
67 69
67 68
66 74
66 71
66 70
66 69
66 68
66 67
65 83
65 79
65 75
65 74
65 73
65 72
65 71
65 70
65 69
65 68
65 67
65 66
64 75
64 74
64 71
64 69
64 67
64 66
64 65
63 74
63 67
63 66
63 65
63 64
62 79
62 78
62 77
62 76
62 75
62 74
62 73
62 71
62 66
62 65
62 64
62 63
61 78
61 77
61 76
61 75
61 74
61 71
61 67
61 65
61 64
61 63
61 62
60 67
60 64
60 63
60 62
60 61
59 76
59 74
59 67
59 66
59 63
59 62
59 61
59 60
58 78
58 77
58 76
58 75
58 74
58 63
58 62
58 61
58 60
58 59
57 64
57 63
57 62
57 61
57 60
57 59
57 58
56 78
56 77
56 76
56 75
56 74
56 64
56 62
56 61
56 60
56 59
56 58
56 57
55 57
55 56
54 56
54 55
53 76
53 75
53 65
53 64
53 62
53 61
53 60
53 58
53 57
53 56
53 55
53 54
52 77
52 61
52 54
52 53
51 79
51 78
51 77
51 76
51 61
51 58
51 56
51 54
51 53
51 52
50 79
50 78
50 77
50 76
50 75
50 74
50 71
50 65
50 64
50 62
50 61
50 60
50 58
50 57
50 56
50 53
50 52
50 51
49 75
49 71
49 65
49 64
49 61
49 56
49 53
49 52
49 51
49 50
48 77
48 53
48 52
48 51
48 50
48 49
47 83
47 81
47 80
47 79
47 78
47 77
47 76
47 75
47 73
47 71
47 61
47 52
47 51
47 50
47 49
47 48
46 83
46 79
46 76
46 75
46 74
46 73
46 72
46 71
46 69
46 65
46 64
46 62
46 61
46 56
46 53
46 51
46 50
46 49
46 48
46 47
45 81
45 80
45 79
45 51
45 49
45 48
45 47
45 46
44 83
44 79
44 75
44 73
44 72
44 71
44 69
44 65
44 64
44 50
44 49
44 47
44 46
44 45
43 48
43 45
43 44
42 84
42 83
42 82
42 81
42 80
42 73
42 45
42 44
42 43
41 84
41 83
41 82
41 79
41 75
41 73
41 72
41 71
41 69
41 65
41 46
41 44
41 43
41 42
40 83
40 44
40 43
40 42
40 41
39 81
39 45
39 44
39 43
39 42
39 41
39 40
38 84
38 83
38 82
38 81
38 43
38 42
38 41
38 40
38 39
37 84
37 43
37 42
37 41
37 40
37 39
37 38
36 69
36 44
36 41
36 40
36 39
36 38
36 37
35 83
35 75
35 73
35 72
35 71
35 69
35 65
35 49
35 46
35 44
35 43
35 41
35 40
35 37
35 36
34 46
34 44
34 41
34 40
34 37
34 36
34 35
33 69
33 36
33 35
33 34
32 83
32 75
32 73
32 72
32 71
32 70
32 69
32 68
32 65
32 64
32 46
32 44
32 41
32 36
32 35
32 34
32 33
31 83
31 75
31 73
31 71
31 69
31 65
31 64
31 61
31 50
31 49
31 46
31 44
31 43
31 41
31 40
31 35
31 34
31 33
31 32
30 44
30 35
30 34
30 33
30 32
30 31
29 71
29 70
29 69
29 68
29 65
29 64
29 33
29 32
29 31
29 30
28 75
28 71
28 70
28 69
28 68
28 67
28 65
28 64
28 61
28 53
28 50
28 49
28 46
28 44
28 41
28 35
28 32
28 31
28 30
28 29
27 69
27 64
27 46
27 44
27 34
27 31
27 30
27 29
27 28
26 34
26 33
26 31
26 30
26 29
26 28
26 27
25 30
25 27
25 26
24 67
24 30
24 29
24 27
24 26
24 25
23 64
23 26
23 25
23 24
22 75
22 67
22 65
22 64
22 63
22 61
22 60
22 56
22 53
22 50
22 49
22 46
22 28
22 25
22 24
22 23
21 68
21 67
21 64
21 63
21 60
21 24
21 23
21 22
20 67
20 63
20 60
20 57
20 23
20 22
20 21
19 64
19 60
19 23
19 22
19 21
19 20
18 60
18 57
18 55
18 54
18 53
18 23
18 20
18 19
17 61
17 60
17 59
17 58
17 57
17 56
17 55
17 53
17 20
17 19
17 18
16 61
16 60
16 57
16 56
16 55
16 54
16 53
16 49
16 18
16 17
15 77
15 76
15 75
15 74
15 71
15 67
15 65
15 64
15 63
15 62
15 61
15 60
15 58
15 57
15 56
15 55
15 53
15 52
15 50
15 49
15 46
15 31
15 28
15 22
15 18
15 17
15 16
14 67
14 64
14 63
14 62
14 61
14 60
14 59
14 57
14 53
14 25
14 23
14 22
14 21
14 20
14 19
14 18
14 17
14 16
14 15
13 64
13 60
13 55
13 53
13 25
13 23
13 22
13 19
13 18
13 17
13 16
13 15
13 14
12 75
12 64
12 61
12 56
12 55
12 54
12 53
12 52
12 50
12 49
12 48
12 46
12 31
12 28
12 23
12 22
12 18
12 16
12 15
12 14
12 13
11 30
11 27
11 26
11 25
11 24
11 23
11 22
11 19
11 18
11 14
11 13
11 12
10 53
10 52
10 49
10 27
10 25
10 23
10 16
10 15
10 13
10 12
10 11
9 75
9 71
9 69
9 65
9 64
9 61
9 56
9 53
9 52
9 50
9 49
9 48
9 46
9 44
9 35
9 34
9 32
9 31
9 30
9 28
9 27
9 25
9 22
9 15
9 12
9 11
9 10
8 75
8 71
8 49
8 46
8 44
8 40
8 35
8 34
8 33
8 32
8 31
8 30
8 29
8 28
8 27
8 26
8 25
8 11
8 10
8 9
7 49
7 44
7 34
7 31
7 30
7 27
7 26
7 25
7 12
7 11
7 10
7 9
7 8
6 53
6 52
6 49
6 48
6 46
6 44
6 31
6 15
6 12
6 10
6 9
6 8
6 7
5 83
5 75
5 71
5 69
5 65
5 64
5 61
5 53
5 52
5 50
5 49
5 48
5 47
5 46
5 44
5 43
5 41
5 40
5 35
5 34
5 32
5 31
5 30
5 28
5 27
5 15
5 12
5 9
5 8
5 7
5 6
4 46
4 44
4 43
4 40
4 35
4 34
4 31
4 30
4 27
4 9
4 8
4 7
4 6
4 5
3 49
3 48
3 43
3 34
3 10
3 8
3 7
3 6
3 5
3 4
2 44
2 43
2 40
2 39
2 35
2 34
2 31
2 8
2 7
2 6
2 5
2 4
2 3
1 83
1 75
1 71
1 49
1 46
1 44
1 43
1 41
1 40
1 39
1 37
1 36
1 35
1 34
1 33
1 32
1 31
1 30
1 28
1 9
1 8
1 7
1 5
1 4
1 2
0 44
0 43
0 40
0 39
0 37
0 36
0 35
0 34
0 4
0 3
0 2
0 1
